(declare-fun bvlambda_29_ ()Bool         )
(declare-fun a85 () (Array (_ BitVec 1) (_ BitVec 4)))
(assert
(let (($e7 (_ bv0 2)))
(let (($e329 (concat $e7 true        )))
(let (($e330 (concat $e329 false       )))
(let (($e362                    bvlambda_29_ ))
(let (($e386 (store a85 true        $e330)))
(
                 extract(select $e386(not $e362))
                                                                                                                                                                                                                                                                                                                                                                                                                                                                                                                                                                                                                                                                                                                                                                                                                                                                                                                                                                                                                                                                                                                                                                                      ))                       )                               ))                                                                                                                                                                                                                                                                                      )      )
